c strEdges: 189  randomEdges: 441 
c degrees:  2  3 
c girth: 10 max: 8.032766  
c Hgirth mixed MAXCUT instance
c generated from an undirected graph
c to solve unweighted MaxCut
p cnf 140 1260
56 58 0
-56 -58 0
56 38 0
-56 -38 0
56 138 0
-56 -138 0
82 32 0
-82 -32 0
82 113 0
-82 -113 0
9 26 0
-9 -26 0
9 110 0
-9 -110 0
9 37 0
-9 -37 0
99 80 0
-99 -80 0
99 1 0
-99 -1 0
99 77 0
-99 -77 0
31 126 0
-31 -126 0
31 120 0
-31 -120 0
31 88 0
-31 -88 0
36 42 0
-36 -42 0
36 32 0
-36 -32 0
36 59 0
-36 -59 0
63 88 0
-63 -88 0
63 118 0
-63 -118 0
63 51 0
-63 -51 0
24 108 0
-24 -108 0
24 13 0
-24 -13 0
83 19 0
-83 -19 0
83 69 0
-83 -69 0
83 33 0
-83 -33 0
60 41 0
-60 -41 0
60 58 0
-60 -58 0
60 69 0
-60 -69 0
55 139 0
-55 -139 0
55 110 0
-55 -110 0
48 98 0
-48 -98 0
48 45 0
-48 -45 0
48 8 0
-48 -8 0
5 77 0
-5 -77 0
5 18 0
-5 -18 0
5 49 0
-5 -49 0
102 103 0
-102 -103 0
102 80 0
-102 -80 0
102 137 0
-102 -137 0
40 96 0
-40 -96 0
40 59 0
-40 -59 0
40 66 0
-40 -66 0
16 78 0
-16 -78 0
16 32 0
-16 -32 0
84 33 0
-84 -33 0
84 97 0
-84 -97 0
84 121 0
-84 -121 0
11 57 0
-11 -57 0
11 51 0
-11 -51 0
104 121 0
-104 -121 0
104 25 0
-104 -25 0
104 89 0
-104 -89 0
68 97 0
-68 -97 0
68 81 0
-68 -81 0
68 27 0
-68 -27 0
140 90 0
-140 -90 0
140 92 0
-140 -92 0
94 27 0
-94 -27 0
94 42 0
-94 -42 0
94 101 0
-94 -101 0
15 69 0
-15 -69 0
15 37 0
-15 -37 0
105 109 0
-105 -109 0
105 103 0
-105 -103 0
105 90 0
-105 -90 0
30 93 0
-30 -93 0
30 54 0
-30 -54 0
30 1 0
-30 -1 0
133 49 0
-133 -49 0
133 35 0
-133 -35 0
133 95 0
-133 -95 0
134 120 0
-134 -120 0
134 2 0
-134 -2 0
17 51 0
-17 -51 0
17 89 0
-17 -89 0
17 6 0
-17 -6 0
72 65 0
-72 -65 0
72 61 0
-72 -61 0
72 114 0
-72 -114 0
22 54 0
-22 -54 0
22 118 0
-22 -118 0
23 61 0
-23 -61 0
23 53 0
-23 -53 0
62 6 0
-62 -6 0
62 139 0
-62 -139 0
62 117 0
-62 -117 0
119 18 0
-119 -18 0
119 64 0
-119 -64 0
119 127 0
-119 -127 0
100 117 0
-100 -117 0
100 107 0
-100 -107 0
100 90 0
-100 -90 0
106 137 0
-106 -137 0
106 98 0
-106 -98 0
106 125 0
-106 -125 0
76 74 0
-76 -74 0
76 44 0
-76 -44 0
76 96 0
-76 -96 0
129 52 0
-129 -52 0
129 53 0
-129 -53 0
129 74 0
-129 -74 0
29 2 0
-29 -2 0
29 74 0
-29 -74 0
29 50 0
-29 -50 0
85 37 0
-85 -37 0
85 78 0
-85 -78 0
85 57 0
-85 -57 0
111 45 0
-111 -45 0
111 41 0
-111 -41 0
111 88 0
-111 -88 0
128 125 0
-128 -125 0
128 78 0
-128 -78 0
128 44 0
-128 -44 0
75 38 0
-75 -38 0
75 91 0
-75 -91 0
75 52 0
-75 -52 0
3 110 0
-3 -110 0
3 20 0
-3 -20 0
3 80 0
-3 -80 0
122 114 0
-122 -114 0
122 96 0
-122 -96 0
122 126 0
-122 -126 0
73 127 0
-73 -127 0
73 91 0
-73 -91 0
73 108 0
-73 -108 0
123 8 0
-123 -8 0
123 81 0
-123 -81 0
123 66 0
-123 -66 0
112 92 0
-112 -92 0
112 25 0
-112 -25 0
70 131 0
-70 -131 0
70 42 0
-70 -42 0
70 13 0
-70 -13 0
10 46 0
-10 -46 0
10 61 0
-10 -61 0
10 117 0
-10 -117 0
71 138 0
-71 -138 0
71 101 0
-71 -101 0
71 65 0
-71 -65 0
130 89 0
-130 -89 0
130 52 0
-130 -52 0
130 8 0
-130 -8 0
47 107 0
-47 -107 0
47 113 0
-47 -113 0
47 64 0
-47 -64 0
28 35 0
-28 -35 0
28 27 0
-28 -27 0
28 50 0
-28 -50 0
79 25 0
-79 -25 0
79 93 0
-79 -93 0
79 26 0
-79 -26 0
34 101 0
-34 -101 0
34 92 0
-34 -92 0
132 118 0
-132 -118 0
132 49 0
-132 -49 0
135 59 0
-135 -59 0
135 103 0
-135 -103 0
135 58 0
-135 -58 0
136 95 0
-136 -95 0
136 114 0
-136 -114 0
136 26 0
-136 -26 0
4 53 0
-4 -53 0
4 19 0
-4 -19 0
4 137 0
-4 -137 0
115 1 0
-115 -1 0
115 87 0
-115 -87 0
115 33 0
-115 -33 0
21 50 0
-21 -50 0
21 109 0
-21 -109 0
12 20 0
-12 -20 0
12 120 0
-12 -120 0
14 13 0
-14 -13 0
14 93 0
-14 -93 0
86 66 0
-86 -66 0
86 57 0
-86 -57 0
86 108 0
-86 -108 0
39 113 0
-39 -113 0
39 126 0
-39 -126 0
67 87 0
-67 -87 0
67 131 0
-67 -131 0
67 46 0
-67 -46 0
43 91 0
-43 -91 0
43 20 0
-43 -20 0
7 81 0
-7 -81 0
7 139 0
-7 -139 0
124 44 0
-124 -44 0
124 54 0
-124 -54 0
116 64 0
-116 -64 0
116 19 0
-116 -19 0
138 91 0
-138 -91 0
31 108 0
-31 -108 0
90 18 0
-90 -18 0
134 100 0
-134 -100 0
67 59 0
-67 -59 0
85 18 0
-85 -18 0
139 52 0
-139 -52 0
48 1 0
-48 -1 0
134 109 0
-134 -109 0
48 6 0
-48 -6 0
19 95 0
-19 -95 0
102 138 0
-102 -138 0
126 110 0
-126 -110 0
31 45 0
-31 -45 0
106 130 0
-106 -130 0
17 23 0
-17 -23 0
9 93 0
-9 -93 0
3 139 0
-3 -139 0
128 61 0
-128 -61 0
36 14 0
-36 -14 0
102 129 0
-102 -129 0
104 41 0
-104 -41 0
131 44 0
-131 -44 0
39 92 0
-39 -92 0
109 114 0
-109 -114 0
120 127 0
-120 -127 0
100 41 0
-100 -41 0
67 41 0
-67 -41 0
125 131 0
-125 -131 0
26 95 0
-26 -95 0
139 138 0
-139 -138 0
77 44 0
-77 -44 0
88 54 0
-88 -54 0
133 80 0
-133 -80 0
111 78 0
-111 -78 0
104 66 0
-104 -66 0
40 129 0
-40 -129 0
67 38 0
-67 -38 0
99 18 0
-99 -18 0
93 20 0
-93 -20 0
33 18 0
-33 -18 0
57 107 0
-57 -107 0
123 37 0
-123 -37 0
9 42 0
-9 -42 0
43 41 0
-43 -41 0
123 103 0
-123 -103 0
31 51 0
-31 -51 0
79 138 0
-79 -138 0
36 76 0
-36 -76 0
31 53 0
-31 -53 0
31 140 0
-31 -140 0
17 79 0
-17 -79 0
128 110 0
-128 -110 0
40 97 0
-40 -97 0
100 37 0
-100 -37 0
121 8 0
-121 -8 0
68 91 0
-68 -91 0
24 43 0
-24 -43 0
39 89 0
-39 -89 0
71 52 0
-71 -52 0
106 35 0
-106 -35 0
97 52 0
-97 -52 0
15 18 0
-15 -18 0
40 75 0
-40 -75 0
67 103 0
-67 -103 0
68 119 0
-68 -119 0
59 50 0
-59 -50 0
75 77 0
-75 -77 0
23 93 0
-23 -93 0
14 96 0
-14 -96 0
63 74 0
-63 -74 0
10 1 0
-10 -1 0
58 25 0
-58 -25 0
42 91 0
-42 -91 0
129 27 0
-129 -27 0
61 118 0
-61 -118 0
135 110 0
-135 -110 0
82 90 0
-82 -90 0
16 137 0
-16 -137 0
94 95 0
-94 -95 0
20 66 0
-20 -66 0
111 34 0
-111 -34 0
26 118 0
-26 -118 0
108 45 0
-108 -45 0
21 81 0
-21 -81 0
48 97 0
-48 -97 0
12 14 0
-12 -14 0
16 104 0
-16 -104 0
96 110 0
-96 -110 0
105 123 0
-105 -123 0
58 64 0
-58 -64 0
69 113 0
-69 -113 0
102 89 0
-102 -89 0
85 71 0
-85 -71 0
61 8 0
-61 -8 0
30 29 0
-30 -29 0
107 101 0
-107 -101 0
127 101 0
-127 -101 0
42 64 0
-42 -64 0
29 35 0
-29 -35 0
2 107 0
-2 -107 0
116 26 0
-116 -26 0
16 108 0
-16 -108 0
97 46 0
-97 -46 0
119 20 0
-119 -20 0
6 20 0
-6 -20 0
47 126 0
-47 -126 0
37 89 0
-37 -89 0
62 138 0
-62 -138 0
100 10 0
-100 -10 0
22 21 0
-22 -21 0
86 20 0
-86 -20 0
12 87 0
-12 -87 0
24 65 0
-24 -65 0
30 98 0
-30 -98 0
36 75 0
-36 -75 0
22 128 0
-22 -128 0
128 114 0
-128 -114 0
135 25 0
-135 -25 0
3 101 0
-3 -101 0
3 14 0
-3 -14 0
137 101 0
-137 -101 0
18 13 0
-18 -13 0
46 81 0
-46 -81 0
80 117 0
-80 -117 0
104 62 0
-104 -62 0
30 42 0
-30 -42 0
133 61 0
-133 -61 0
18 38 0
-18 -38 0
105 97 0
-105 -97 0
45 114 0
-45 -114 0
83 43 0
-83 -43 0
15 78 0
-15 -78 0
21 89 0
-21 -89 0
63 61 0
-63 -61 0
31 123 0
-31 -123 0
139 78 0
-139 -78 0
130 81 0
-130 -81 0
71 53 0
-71 -53 0
9 8 0
-9 -8 0
75 98 0
-75 -98 0
36 128 0
-36 -128 0
14 26 0
-14 -26 0
67 35 0
-67 -35 0
79 137 0
-79 -137 0
136 101 0
-136 -101 0
112 66 0
-112 -66 0
21 108 0
-21 -108 0
73 51 0
-73 -51 0
23 43 0
-23 -43 0
39 18 0
-39 -18 0
63 119 0
-63 -119 0
62 96 0
-62 -96 0
56 5 0
-56 -5 0
6 89 0
-6 -89 0
41 65 0
-41 -65 0
19 6 0
-19 -6 0
106 122 0
-106 -122 0
126 2 0
-126 -2 0
3 97 0
-3 -97 0
60 42 0
-60 -42 0
111 126 0
-111 -126 0
39 88 0
-39 -88 0
106 54 0
-106 -54 0
17 61 0
-17 -61 0
19 54 0
-19 -54 0
133 77 0
-133 -77 0
119 80 0
-119 -80 0
22 61 0
-22 -61 0
29 18 0
-29 -18 0
83 54 0
-83 -54 0
6 74 0
-6 -74 0
92 1 0
-92 -1 0
26 18 0
-26 -18 0
3 2 0
-3 -2 0
102 57 0
-102 -57 0
70 78 0
-70 -78 0
41 95 0
-41 -95 0
74 1 0
-74 -1 0
48 14 0
-48 -14 0
19 98 0
-19 -98 0
29 70 0
-29 -70 0
46 113 0
-46 -113 0
58 65 0
-58 -65 0
109 110 0
-109 -110 0
85 116 0
-85 -116 0
29 13 0
-29 -13 0
57 2 0
-57 -2 0
140 34 0
-140 -34 0
55 133 0
-55 -133 0
114 1 0
-114 -1 0
9 18 0
-9 -18 0
5 26 0
-5 -26 0
99 78 0
-99 -78 0
112 137 0
-112 -137 0
26 57 0
-26 -57 0
67 125 0
-67 -125 0
3 10 0
-3 -10 0
126 95 0
-126 -95 0
62 28 0
-62 -28 0
104 96 0
-104 -96 0
129 4 0
-129 -4 0
131 13 0
-131 -13 0
5 85 0
-5 -85 0
3 12 0
-3 -12 0
86 88 0
-86 -88 0
45 113 0
-45 -113 0
112 115 0
-112 -115 0
55 76 0
-55 -76 0
100 96 0
-100 -96 0
60 3 0
-60 -3 0
5 100 0
-5 -100 0
16 2 0
-16 -2 0
96 113 0
-96 -113 0
124 49 0
-124 -49 0
140 95 0
-140 -95 0
120 107 0
-120 -107 0
72 50 0
-72 -50 0
40 35 0
-40 -35 0
30 111 0
-30 -111 0
34 117 0
-34 -117 0
115 8 0
-115 -8 0
104 139 0
-104 -139 0
16 77 0
-16 -77 0
127 25 0
-127 -25 0
3 114 0
-3 -114 0
74 91 0
-74 -91 0
70 91 0
-70 -91 0
129 19 0
-129 -19 0
26 127 0
-26 -127 0
9 55 0
-9 -55 0
56 14 0
-56 -14 0
7 33 0
-7 -33 0
116 109 0
-116 -109 0
72 117 0
-72 -117 0
14 25 0
-14 -25 0
56 77 0
-56 -77 0
125 46 0
-125 -46 0
68 95 0
-68 -95 0
63 15 0
-63 -15 0
22 114 0
-22 -114 0
23 66 0
-23 -66 0
69 81 0
-69 -81 0
130 41 0
-130 -41 0
90 93 0
-90 -93 0
41 69 0
-41 -69 0
105 71 0
-105 -71 0
95 53 0
-95 -53 0
73 80 0
-73 -80 0
90 117 0
-90 -117 0
85 107 0
-85 -107 0
76 97 0
-76 -97 0
60 102 0
-60 -102 0
139 61 0
-139 -61 0
93 120 0
-93 -120 0
102 87 0
-102 -87 0
104 130 0
-104 -130 0
100 131 0
-100 -131 0
40 135 0
-40 -135 0
79 115 0
-79 -115 0
6 125 0
-6 -125 0
84 131 0
-84 -131 0
132 127 0
-132 -127 0
75 26 0
-75 -26 0
70 46 0
-70 -46 0
67 65 0
-67 -65 0
115 110 0
-115 -110 0
62 53 0
-62 -53 0
52 8 0
-52 -8 0
19 35 0
-19 -35 0
125 50 0
-125 -50 0
78 92 0
-78 -92 0
48 125 0
-48 -125 0
102 131 0
-102 -131 0
117 52 0
-117 -52 0
138 95 0
-138 -95 0
40 100 0
-40 -100 0
32 131 0
-32 -131 0
27 37 0
-27 -37 0
90 89 0
-90 -89 0
49 101 0
-49 -101 0
82 45 0
-82 -45 0
58 51 0
-58 -51 0
111 61 0
-111 -61 0
126 125 0
-126 -125 0
122 58 0
-122 -58 0
75 138 0
-75 -138 0
36 51 0
-36 -51 0
63 50 0
-63 -50 0
134 29 0
-134 -29 0
78 93 0
-78 -93 0
82 6 0
-82 -6 0
130 98 0
-130 -98 0
80 120 0
-80 -120 0
63 48 0
-63 -48 0
123 91 0
-123 -91 0
69 44 0
-69 -44 0
117 74 0
-117 -74 0
77 127 0
-77 -127 0
30 132 0
-30 -132 0
28 125 0
-28 -125 0
71 13 0
-71 -13 0
134 123 0
-134 -123 0
82 137 0
-82 -137 0
135 117 0
-135 -117 0
112 78 0
-112 -78 0
83 81 0
-83 -81 0
72 7 0
-72 -7 0
69 107 0
-69 -107 0
105 96 0
-105 -96 0
86 59 0
-86 -59 0
132 77 0
-132 -77 0
35 118 0
-35 -118 0
17 118 0
-17 -118 0
4 65 0
-4 -65 0
128 54 0
-128 -54 0
123 97 0
-123 -97 0
133 130 0
-133 -130 0
62 3 0
-62 -3 0
73 59 0
-73 -59 0
132 86 0
-132 -86 0
11 112 0
-11 -112 0
94 114 0
-94 -114 0
108 41 0
-108 -41 0
52 45 0
-52 -45 0
129 20 0
-129 -20 0
104 51 0
-104 -51 0
94 59 0
-94 -59 0
12 7 0
-12 -7 0
2 53 0
-2 -53 0
94 132 0
-94 -132 0
12 66 0
-12 -66 0
121 37 0
-121 -37 0
12 58 0
-12 -58 0
119 81 0
-119 -81 0
2 64 0
-2 -64 0
11 65 0
-11 -65 0
77 81 0
-77 -81 0
72 41 0
-72 -41 0
100 121 0
-100 -121 0
130 67 0
-130 -67 0
134 138 0
-134 -138 0
133 75 0
-133 -75 0
73 7 0
-73 -7 0
115 108 0
-115 -108 0
56 109 0
-56 -109 0
48 75 0
-48 -75 0
31 136 0
-31 -136 0
69 120 0
-69 -120 0
62 93 0
-62 -93 0
110 13 0
-110 -13 0
61 66 0
-61 -66 0
48 93 0
-48 -93 0
3 7 0
-3 -7 0
82 77 0
-82 -77 0
139 74 0
-139 -74 0
42 88 0
-42 -88 0
102 17 0
-102 -17 0
22 80 0
-22 -80 0
17 43 0
-17 -43 0
12 124 0
-12 -124 0
99 114 0
-99 -114 0
135 69 0
-135 -69 0
129 91 0
-129 -91 0
2 125 0
-2 -125 0
60 104 0
-60 -104 0
69 2 0
-69 -2 0
69 50 0
-69 -50 0
122 47 0
-122 -47 0
21 114 0
-21 -114 0
88 65 0
-88 -65 0
132 19 0
-132 -19 0
27 38 0
-27 -38 0
123 13 0
-123 -13 0
22 23 0
-22 -23 0
40 103 0
-40 -103 0
11 12 0
-11 -12 0
42 8 0
-42 -8 0
100 46 0
-100 -46 0
62 51 0
-62 -51 0
4 50 0
-4 -50 0
140 137 0
-140 -137 0
130 120 0
-130 -120 0
134 119 0
-134 -119 0
88 109 0
-88 -109 0
72 28 0
-72 -28 0
48 126 0
-48 -126 0
106 113 0
-106 -113 0
120 91 0
-120 -91 0
30 81 0
-30 -81 0
36 22 0
-36 -22 0
88 127 0
-88 -127 0
51 118 0
-51 -118 0
39 38 0
-39 -38 0
129 79 0
-129 -79 0
15 62 0
-15 -62 0
49 91 0
-49 -91 0
11 25 0
-11 -25 0
62 81 0
-62 -81 0
10 109 0
-10 -109 0
73 4 0
-73 -4 0
111 86 0
-111 -86 0
108 121 0
-108 -121 0
105 39 0
-105 -39 0
34 7 0
-34 -7 0
16 85 0
-16 -85 0
76 91 0
-76 -91 0
85 53 0
-85 -53 0
18 110 0
-18 -110 0
140 115 0
-140 -115 0
124 109 0
-124 -109 0
126 54 0
-126 -54 0
56 117 0
-56 -117 0
12 121 0
-12 -121 0
29 32 0
-29 -32 0
85 61 0
-85 -61 0
103 1 0
-103 -1 0
21 65 0
-21 -65 0
56 104 0
-56 -104 0
62 101 0
-62 -101 0
100 1 0
-100 -1 0
76 28 0
-76 -28 0
9 17 0
-9 -17 0
123 98 0
-123 -98 0
16 6 0
-16 -6 0
140 14 0
-140 -14 0
17 127 0
-17 -127 0
133 51 0
-133 -51 0
7 57 0
-7 -57 0
128 19 0
-128 -19 0
43 131 0
-43 -131 0
48 128 0
-48 -128 0
30 66 0
-30 -66 0
52 13 0
-52 -13 0
17 7 0
-17 -7 0
119 122 0
-119 -122 0
9 106 0
-9 -106 0
63 132 0
-63 -132 0
48 69 0
-48 -69 0
126 42 0
-126 -42 0
23 137 0
-23 -137 0
